Version identifier: 22.1.1.0 | 2022-11-28 | 9160aff4d
CPXPARAM_ClockType                               1
CPXPARAM_Read_DataCheck                          1
CPXPARAM_Threads                                 1
CPXPARAM_TimeLimit                               7200
CPXPARAM_MIP_Tolerances_AbsMIPGap                0
CPXPARAM_MIP_Tolerances_MIPGap                   0
CPXPARAM_MIP_Tolerances_Integrality              0
Tried aggregator 1 time.
MIP Presolve eliminated 122742 rows and 4 columns.
MIP Presolve modified 44568 coefficients.
Reduced MIP has 53514 rows, 9446 columns, and 360016 nonzeros.
Reduced MIP has 9446 binaries, 0 generals, 0 SOSs, and 0 indicators.
Presolve time = 2.50 sec. (1460.80 ticks)
Probing time = 0.03 sec. (6.61 ticks)
Tried aggregator 1 time.
Detecting symmetries...
MIP Presolve eliminated 65 rows and 0 columns.
Reduced MIP has 53449 rows, 9446 columns, and 358651 nonzeros.
Reduced MIP has 9446 binaries, 0 generals, 0 SOSs, and 0 indicators.
Presolve time = 0.98 sec. (581.34 ticks)
Probing time = 0.03 sec. (6.40 ticks)
Clique table members: 68782.
MIP emphasis: balance optimality and feasibility.
MIP search method: dynamic search.
Parallel mode: none, using 1 thread.
Root relaxation solution time = 839.62 sec. (437085.22 ticks)

        Nodes                                         Cuts/
   Node  Left     Objective  IInf  Best Integer    Best Bound    ItCnt     Gap

      0     0      940.9845  2854                    940.9845   496066         
      0     0      617.8345  2217                  Cuts: 1236   804390         
      0     0      600.0000  2585                   Cuts: 664  1078177         
      0     0      600.0000  2636                   Cuts: 753  1327761         

GUB cover cuts applied:  2
Clique cuts applied:  335
Zero-half cuts applied:  168

Root node processing (before b&c):
  Real time             = 7200.04 sec. (3184063.45 ticks)
Sequential b&c:
  Real time             =    0.00 sec. (0.00 ticks)
                          ------------
Total (root+branch&cut) = 7200.04 sec. (3184063.45 ticks)
Solution is infeasible.

---------------------
@@@ MIP_time_limit_infeasible
Traceback (most recent call last):
  File "/scratch/scherif/DiverseSAT-journal_sup/DiverseSAT_Supplementary_Experiments/experiment-1/cplex/jobs/../solvers/CPLEX-DW-SE.py", line 104, in <module>
    print(f">>> Benchmark {os.path.basename(cnf_file)} k {k} OPT {int(prob.solution.get_objective_value())}"
  File "/users/scherif/.local/lib/python3.9/site-packages/cplex/_internal/_subinterfaces.py", line 7211, in get_objective_value
    return CPX_PROC.getobjval(self._env._e, self._cplex._lp)
  File "/users/scherif/.local/lib/python3.9/site-packages/cplex/_internal/_procedural.py", line 2055, in getobjval
    check_status(env, status)
  File "/users/scherif/.local/lib/python3.9/site-packages/cplex/_internal/_procedural.py", line 249, in __call__
    raise CplexSolverError(error_string, env, status)
cplex.exceptions.errors.CplexSolverError: CPLEX Error  1217: No solution exists.
